(set-logic QF_NRA)
(set-info :source |
From termination analysis of term rewriting.

Submitted by Harald Roman Zankl <Harald.Zankl@uibk.ac.at>

|)
(set-info :smt-lib-version 2.0)
(set-info :category "industrial")
(set-info :status unknown)
(declare-fun x6 () Real)
(declare-fun x23 () Real)
(declare-fun x13 () Real)
(declare-fun x30 () Real)
(declare-fun x3 () Real)
(declare-fun x20 () Real)
(declare-fun x37 () Real)
(declare-fun x10 () Real)
(declare-fun x27 () Real)
(declare-fun x0 () Real)
(declare-fun x17 () Real)
(declare-fun x34 () Real)
(declare-fun x7 () Real)
(declare-fun x24 () Real)
(declare-fun x14 () Real)
(declare-fun x31 () Real)
(declare-fun x4 () Real)
(declare-fun x21 () Real)
(declare-fun x38 () Real)
(declare-fun x11 () Real)
(declare-fun x28 () Real)
(declare-fun x1 () Real)
(declare-fun x18 () Real)
(declare-fun x35 () Real)
(declare-fun x8 () Real)
(declare-fun x25 () Real)
(declare-fun x15 () Real)
(declare-fun x32 () Real)
(declare-fun x5 () Real)
(declare-fun x22 () Real)
(declare-fun x39 () Real)
(declare-fun x12 () Real)
(declare-fun x29 () Real)
(declare-fun x2 () Real)
(declare-fun x19 () Real)
(declare-fun x36 () Real)
(declare-fun x9 () Real)
(declare-fun x26 () Real)
(declare-fun x16 () Real)
(declare-fun x33 () Real)
(assert (>= x6 0))
(assert (>= x23 0))
(assert (>= x13 0))
(assert (>= x30 0))
(assert (>= x3 0))
(assert (>= x20 0))
(assert (>= x37 0))
(assert (>= x10 0))
(assert (>= x27 0))
(assert (>= x0 0))
(assert (>= x17 0))
(assert (>= x34 0))
(assert (>= x7 0))
(assert (>= x24 0))
(assert (>= x14 0))
(assert (>= x31 0))
(assert (>= x4 0))
(assert (>= x21 0))
(assert (>= x38 0))
(assert (>= x11 0))
(assert (>= x28 0))
(assert (>= x1 0))
(assert (>= x18 0))
(assert (>= x35 0))
(assert (>= x8 0))
(assert (>= x25 0))
(assert (>= x15 0))
(assert (>= x32 0))
(assert (>= x5 0))
(assert (>= x22 0))
(assert (>= x39 0))
(assert (>= x12 0))
(assert (>= x29 0))
(assert (>= x2 0))
(assert (>= x19 0))
(assert (>= x36 0))
(assert (>= x9 0))
(assert (>= x26 0))
(assert (>= x16 0))
(assert (>= x33 0))
(assert (and (and (and (and (and (and (and (and (and (and (not (<= (+ (* x4 x1) (* x5 x2) (* x6 x3)) 0)) (>= (+ (* x4 x1) (* x5 x2) (* x6 x3)) 0)) (and (and (>= (+ (* (- 1) x1) (* x1 x16) (* x2 x19) (* x3 x22)) 0) (>= (+ (* (- 1) x2) (* x17 x1) (* x20 x2) (* x23 x3)) 0)) (>= (+ (* (- 1) x3) (* x1 x18) (* x3 x24) (* x21 x2)) 0))) (and (and (and (and (not (<= (+ (* x4 x1) (* x5 x2) (* x6 x3) (* (- 1) (* x4 x25)) (* (- 1) (* x5 x26)) (* (- 1) (* x6 x27))) 0)) (>= (+ (* x4 x1) (* x5 x2) (* x6 x3) (* (- 1) (* x4 x25)) (* (- 1) (* x5 x26)) (* (- 1) (* x6 x27))) 0)) (and (and (>= (+ (* (- 1) x1) (* x7 x1) (* x10 x2) (* x13 x3)) 0) (>= (+ (* (- 1) x2) (* x1 x8) (* x3 x14) (* x11 x2)) 0)) (>= (+ (* (- 1) x3) (* x1 x9) (* x3 x15) (* x12 x2)) 0))) (and (and (>= (+ (* x1 x16) (* x2 x19) (* x3 x22) (* (- 1) (* x7 x25)) (* (- 1) (* x10 x26)) (* (- 1) (* x13 x27))) 0) (>= (+ (* (- 1) (* x27 x14)) (* x17 x1) (* x20 x2) (* x23 x3) (* (- 1) (* x8 x25)) (* (- 1) (* x11 x26))) 0)) (>= (+ (* x1 x18) (* x3 x24) (* (- 1) (* x25 x9)) (* (- 1) (* x27 x15)) (* x21 x2) (* (- 1) (* x12 x26))) 0))) (and (and (>= (+ x25 (* (- 1) (* x25 x16)) (* (- 1) (* x27 x22)) (* (- 1) (* x19 x26))) 0) (>= (+ x26 (* (- 1) (* x17 x25)) (* (- 1) (* x20 x26)) (* (- 1) (* x23 x27))) 0)) (>= (+ x27 (* (- 1) (* x27 x24)) (* (- 1) (* x18 x25)) (* (- 1) (* x21 x26))) 0)))) (and (and (and (not (<= (+ (* x28 x1) (* x29 x2) (* x30 x3) (* x28 x25) (* x29 x26) (* x30 x27)) 0)) (>= (+ (* x28 x1) (* x29 x2) (* x30 x3) (* x28 x25) (* x29 x26) (* x30 x27)) 0)) (and (and (>= (+ (* (- 1) x1) (* x3 x37) (* x31 x1) (* x34 x2)) 0) (>= (+ (* (- 1) x2) (* x1 x32) (* x3 x38) (* x35 x2)) 0)) (>= (+ (* (- 1) x3) (* x1 x33) (* x2 x36) (* x3 x39)) 0))) (and (and (>= (+ (* (- 1) x25) (* x31 x25) (* x34 x26) (* x37 x27)) 0) (>= (+ (* (- 1) x26) (* x25 x32) (* x27 x38) (* x35 x26)) 0)) (>= (+ (* (- 1) x27) (* x25 x33) (* x27 x39) (* x36 x26)) 0)))) (and (and (and (not (<= (+ (* x4 x25) (* x5 x26) (* x6 x27) (* x28 x1) (* x29 x2) (* x30 x3) (* x7 x28 x25) (* x8 x25 x29) (* x30 x25 x9) (* x10 x28 x26) (* x11 x29 x26) (* x30 x12 x26) (* x13 x27 x28) (* x27 x14 x29) (* x30 x27 x15)) 0)) (>= (+ (* x4 x25) (* x5 x26) (* x6 x27) (* x28 x1) (* x29 x2) (* x30 x3) (* x7 x28 x25) (* x8 x25 x29) (* x30 x25 x9) (* x10 x28 x26) (* x11 x29 x26) (* x30 x12 x26) (* x13 x27 x28) (* x27 x14 x29) (* x30 x27 x15)) 0)) (and (and (>= (+ (* (- 1) x1) (* x3 x37) (* x31 x1) (* x34 x2)) 0) (>= (+ (* (- 1) x2) (* x1 x32) (* x3 x38) (* x35 x2)) 0)) (>= (+ (* (- 1) x3) (* x1 x33) (* x2 x36) (* x3 x39)) 0))) (and (and (>= (+ (* (- 1) x25) (* x7 x31 x25) (* x34 x8 x25) (* x37 x25 x9) (* x10 x31 x26) (* x34 x11 x26) (* x37 x12 x26) (* x13 x27 x31) (* x27 x34 x14) (* x37 x27 x15)) 0) (>= (+ (* (- 1) x26) (* x7 x25 x32) (* x35 x8 x25) (* x38 x25 x9) (* x10 x32 x26) (* x11 x35 x26) (* x38 x12 x26) (* x13 x27 x32) (* x27 x14 x35) (* x27 x38 x15)) 0)) (>= (+ (* (- 1) x27) (* x7 x25 x33) (* x8 x25 x36) (* x25 x39 x9) (* x10 x26 x33) (* x11 x36 x26) (* x39 x12 x26) (* x13 x27 x33) (* x27 x14 x36) (* x27 x15 x39)) 0)))) (and (and (and (and (not (<= (+ (* x4 x25) (* x5 x26) (* x6 x27) (* x7 x28 x25) (* x8 x25 x29) (* x30 x25 x9) (* x10 x28 x26) (* x11 x29 x26) (* x30 x12 x26) (* x13 x27 x28) (* x27 x14 x29) (* x30 x27 x15) (* (- 1) (* x31 x4 x1)) (* (- 1) (* x1 x32 x5)) (* (- 1) (* x6 x1 x33)) (* (- 1) (* x34 x4 x2)) (* (- 1) (* x35 x5 x2)) (* (- 1) (* x6 x2 x36)) (* (- 1) (* x3 x37 x4)) (* (- 1) (* x3 x38 x5)) (* (- 1) (* x6 x3 x39))) 0)) (>= (+ (* x4 x25) (* x5 x26) (* x6 x27) (* x7 x28 x25) (* x8 x25 x29) (* x30 x25 x9) (* x10 x28 x26) (* x11 x29 x26) (* x30 x12 x26) (* x13 x27 x28) (* x27 x14 x29) (* x30 x27 x15) (* (- 1) (* x31 x4 x1)) (* (- 1) (* x1 x32 x5)) (* (- 1) (* x6 x1 x33)) (* (- 1) (* x34 x4 x2)) (* (- 1) (* x35 x5 x2)) (* (- 1) (* x6 x2 x36)) (* (- 1) (* x3 x37 x4)) (* (- 1) (* x3 x38 x5)) (* (- 1) (* x6 x3 x39))) 0)) (and (and (>= (+ (* x3 x37) (* x31 x1) (* x34 x2) (* (- 1) (* x7 x31 x1)) (* (- 1) (* x10 x1 x32)) (* (- 1) (* x13 x1 x33)) (* (- 1) (* x34 x7 x2)) (* (- 1) (* x10 x35 x2)) (* (- 1) (* x13 x2 x36)) (* (- 1) (* x3 x37 x7)) (* (- 1) (* x3 x10 x38)) (* (- 1) (* x13 x3 x39))) 0) (>= (+ (* x1 x32) (* x3 x38) (* x35 x2) (* (- 1) (* x31 x1 x8)) (* (- 1) (* x11 x1 x32)) (* (- 1) (* x14 x1 x33)) (* (- 1) (* x11 x35 x2)) (* (- 1) (* x14 x2 x36)) (* (- 1) (* x34 x8 x2)) (* (- 1) (* x3 x37 x8)) (* (- 1) (* x3 x38 x11)) (* (- 1) (* x3 x14 x39))) 0)) (>= (+ (* x1 x33) (* x2 x36) (* x3 x39) (* (- 1) (* x31 x1 x9)) (* (- 1) (* x1 x32 x12)) (* (- 1) (* x1 x15 x33)) (* (- 1) (* x34 x2 x9)) (* (- 1) (* x35 x12 x2)) (* (- 1) (* x15 x2 x36)) (* (- 1) (* x3 x15 x39)) (* (- 1) (* x3 x37 x9)) (* (- 1) (* x3 x38 x12))) 0))) (and (and (>= (+ (* x7 x31 x25) (* x34 x8 x25) (* x37 x25 x9) (* x10 x31 x26) (* x34 x11 x26) (* x37 x12 x26) (* x13 x27 x31) (* x27 x34 x14) (* x37 x27 x15) (* (- 1) (* x31 x1 x16)) (* (- 1) (* x1 x32 x19)) (* (- 1) (* x1 x22 x33)) (* (- 1) (* x34 x2 x16)) (* (- 1) (* x35 x2 x19)) (* (- 1) (* x22 x2 x36)) (* (- 1) (* x3 x37 x16)) (* (- 1) (* x3 x38 x19)) (* (- 1) (* x3 x22 x39))) 0) (>= (+ (* x7 x25 x32) (* x35 x8 x25) (* x38 x25 x9) (* x10 x32 x26) (* x11 x35 x26) (* x38 x12 x26) (* x13 x27 x32) (* x27 x14 x35) (* x27 x38 x15) (* (- 1) (* x17 x31 x1)) (* (- 1) (* x20 x1 x32)) (* (- 1) (* x23 x1 x33)) (* (- 1) (* x17 x34 x2)) (* (- 1) (* x20 x35 x2)) (* (- 1) (* x23 x2 x36)) (* (- 1) (* x3 x37 x17)) (* (- 1) (* x3 x20 x38)) (* (- 1) (* x23 x3 x39))) 0)) (>= (+ (* x7 x25 x33) (* x8 x25 x36) (* x25 x39 x9) (* x10 x26 x33) (* x11 x36 x26) (* x39 x12 x26) (* x13 x27 x33) (* x27 x14 x36) (* x27 x15 x39) (* (- 1) (* x31 x1 x18)) (* (- 1) (* x21 x1 x32)) (* (- 1) (* x24 x1 x33)) (* (- 1) (* x34 x18 x2)) (* (- 1) (* x21 x35 x2)) (* (- 1) (* x24 x2 x36)) (* (- 1) (* x3 x37 x18)) (* (- 1) (* x3 x21 x38)) (* (- 1) (* x3 x24 x39))) 0))) (and (and (>= (+ (* (- 1) x25) (* x25 x16) (* x27 x22) (* x19 x26)) 0) (>= (+ (* (- 1) x26) (* x17 x25) (* x20 x26) (* x23 x27)) 0)) (>= (+ (* (- 1) x27) (* x27 x24) (* x18 x25) (* x21 x26)) 0)))) (and (and (and (and (not (<= (+ (* (- 1) (* x17 x5)) (* x7 x4) (* x8 x5) (* x6 x9) (* (- 1) (* x4 x16)) (* (- 1) (* x6 x18))) 0)) (and (and (>= (+ (* (- 1) (* x17 x5)) (* x7 x4) (* x8 x5) (* x6 x9) (* (- 1) (* x4 x16)) (* (- 1) (* x6 x18))) 0) (>= (+ (* x10 x4) (* x11 x5) (* (- 1) (* x20 x5)) (* x6 x12) (* (- 1) (* x4 x19)) (* (- 1) (* x6 x21))) 0)) (>= (+ (* x13 x4) (* x14 x5) (* (- 1) (* x23 x5)) (* x6 x15) (* (- 1) (* x4 x22)) (* (- 1) (* x6 x24))) 0))) (and (and (and (and (and (and (and (and (>= (+ (* (- 1) x7) (* x7 x7) (* x10 x8) (* x13 x9)) 0) (>= (+ (* (- 1) x8) (* x7 x8) (* x11 x8) (* x14 x9)) 0)) (>= (+ (* (- 1) x9) (* x7 x9) (* x8 x12) (* x15 x9)) 0)) (>= (+ (* (- 1) x10) (* x10 x7) (* x10 x11) (* x13 x12)) 0)) (>= (+ (* (- 1) x11) (* x10 x8) (* x11 x11) (* x14 x12)) 0)) (>= (+ (* (- 1) x12) (* x10 x9) (* x11 x12) (* x15 x12)) 0)) (>= (+ (* (- 1) x13) (* x13 x7) (* x10 x14) (* x13 x15)) 0)) (>= (+ (* (- 1) x14) (* x13 x8) (* x14 x11) (* x14 x15)) 0)) (>= (+ (* (- 1) x15) (* x13 x9) (* x14 x12) (* x15 x15)) 0))) (and (and (and (and (and (and (and (and (>= (+ (* x8 x19) (* (- 1) (* x10 x17)) (* (- 1) (* x13 x18)) (* x22 x9)) 0) (>= (+ (* (- 1) (* x17 x11)) (* x17 x7) (* x20 x8) (* x23 x9) (* (- 1) (* x8 x16)) (* (- 1) (* x14 x18))) 0)) (>= (+ (* x7 x18) (* (- 1) (* x17 x12)) (* (- 1) (* x18 x15)) (* x21 x8) (* x24 x9) (* (- 1) (* x9 x16))) 0)) (>= (+ (* x10 x16) (* x11 x19) (* (- 1) (* x20 x10)) (* x22 x12) (* (- 1) (* x7 x19)) (* (- 1) (* x13 x21))) 0)) (>= (+ (* (- 1) (* x8 x19)) (* x10 x17) (* (- 1) (* x14 x21)) (* x23 x12)) 0)) (>= (+ (* x10 x18) (* (- 1) (* x19 x9)) (* (- 1) (* x20 x12)) (* (- 1) (* x21 x15)) (* x21 x11) (* x24 x12)) 0)) (>= (+ (* x13 x16) (* x14 x19) (* x15 x22) (* (- 1) (* x23 x10)) (* (- 1) (* x7 x22)) (* (- 1) (* x13 x24))) 0)) (>= (+ (* x13 x17) (* (- 1) (* x23 x11)) (* (- 1) (* x24 x14)) (* x20 x14) (* x23 x15) (* (- 1) (* x8 x22))) 0)) (>= (+ (* x13 x18) (* x14 x21) (* (- 1) (* x22 x9)) (* (- 1) (* x23 x12))) 0))) (and (and (and (and (and (and (and (and (>= (+ x16 (* (- 1) (* x16 x16)) (* (- 1) (* x17 x19)) (* (- 1) (* x18 x22))) 0) (>= (+ x17 (* (- 1) (* x17 x16)) (* (- 1) (* x20 x17)) (* (- 1) (* x23 x18))) 0)) (>= (+ x18 (* (- 1) (* x17 x21)) (* (- 1) (* x18 x16)) (* (- 1) (* x24 x18))) 0)) (>= (+ x19 (* (- 1) (* x19 x16)) (* (- 1) (* x20 x19)) (* (- 1) (* x21 x22))) 0)) (>= (+ x20 (* (- 1) (* x17 x19)) (* (- 1) (* x20 x20)) (* (- 1) (* x23 x21))) 0)) (>= (+ x21 (* (- 1) (* x20 x21)) (* (- 1) (* x18 x19)) (* (- 1) (* x24 x21))) 0)) (>= (+ x22 (* (- 1) (* x22 x16)) (* (- 1) (* x23 x19)) (* (- 1) (* x24 x22))) 0)) (>= (+ x23 (* (- 1) (* x23 x20)) (* (- 1) (* x17 x22)) (* (- 1) (* x23 x24))) 0)) (>= (+ x24 (* (- 1) (* x18 x22)) (* (- 1) (* x23 x21)) (* (- 1) (* x24 x24))) 0)))) (and (and (and (not (<= (+ x4 (* (- 1) x28) (* x7 x28) (* x8 x29) (* (- 1) (* x31 x4)) (* (- 1) (* x32 x5)) (* x17 x29) (* x30 x9) (* (- 1) (* x6 x33)) (* x28 x16) (* x30 x18)) 0)) (and (and (>= (+ x4 (* (- 1) x28) (* x7 x28) (* x8 x29) (* (- 1) (* x31 x4)) (* (- 1) (* x32 x5)) (* x17 x29) (* x30 x9) (* (- 1) (* x6 x33)) (* x28 x16) (* x30 x18)) 0) (>= (+ x5 (* (- 1) x29) (* x10 x28) (* x11 x29) (* (- 1) (* x34 x4)) (* (- 1) (* x35 x5)) (* x20 x29) (* x30 x12) (* (- 1) (* x6 x36)) (* x28 x19) (* x30 x21)) 0)) (>= (+ x6 (* (- 1) x30) (* x13 x28) (* x14 x29) (* (- 1) (* x37 x4)) (* (- 1) (* x38 x5)) (* x23 x29) (* x30 x15) (* (- 1) (* x6 x39)) (* x28 x22) (* x30 x24)) 0))) (and (and (and (and (and (and (and (and (>= (+ (* (- 1) (* x10 x32)) (* (- 1) (* x13 x33)) (* x34 x8) (* x37 x9)) 0) (>= (+ (* x7 x32) (* (- 1) (* x31 x8)) (* x35 x8) (* x38 x9) (* (- 1) (* x11 x32)) (* (- 1) (* x14 x33))) 0)) (>= (+ (* x7 x33) (* x8 x36) (* (- 1) (* x31 x9)) (* (- 1) (* x32 x12)) (* x39 x9) (* (- 1) (* x15 x33))) 0)) (>= (+ (* x10 x31) (* (- 1) (* x34 x7)) (* x34 x11) (* x37 x12) (* (- 1) (* x10 x35)) (* (- 1) (* x13 x36))) 0)) (>= (+ (* x10 x32) (* (- 1) (* x14 x36)) (* (- 1) (* x34 x8)) (* x38 x12)) 0)) (>= (+ (* x10 x33) (* x11 x36) (* (- 1) (* x34 x9)) (* (- 1) (* x35 x12)) (* x39 x12) (* (- 1) (* x15 x36))) 0)) (>= (+ (* x13 x31) (* (- 1) (* x37 x7)) (* x34 x14) (* x37 x15) (* (- 1) (* x10 x38)) (* (- 1) (* x13 x39))) 0)) (>= (+ (* x13 x32) (* x14 x35) (* (- 1) (* x37 x8)) (* (- 1) (* x38 x11)) (* x38 x15) (* (- 1) (* x14 x39))) 0)) (>= (+ (* x13 x33) (* x14 x36) (* (- 1) (* x37 x9)) (* (- 1) (* x38 x12))) 0))) (and (and (and (and (and (and (and (and (>= (+ (* (- 1) (* x32 x19)) (* x37 x18) (* x17 x34) (* (- 1) (* x22 x33))) 0) (>= (+ (* x17 x35) (* (- 1) (* x17 x31)) (* (- 1) (* x20 x32)) (* (- 1) (* x23 x33)) (* x32 x16) (* x38 x18)) 0)) (>= (+ (* (- 1) (* x31 x18)) (* x16 x33) (* x17 x36) (* x18 x39) (* (- 1) (* x21 x32)) (* (- 1) (* x24 x33))) 0)) (>= (+ (* (- 1) (* x34 x16)) (* (- 1) (* x35 x19)) (* x20 x34) (* (- 1) (* x22 x36)) (* x31 x19) (* x37 x21)) 0)) (>= (+ (* x32 x19) (* (- 1) (* x17 x34)) (* x21 x38) (* (- 1) (* x23 x36))) 0)) (>= (+ (* (- 1) (* x34 x18)) (* x19 x33) (* x20 x36) (* x21 x39) (* (- 1) (* x21 x35)) (* (- 1) (* x24 x36))) 0)) (>= (+ (* (- 1) (* x37 x16)) (* (- 1) (* x38 x19)) (* x23 x34) (* (- 1) (* x22 x39)) (* x31 x22) (* x37 x24)) 0)) (>= (+ (* (- 1) (* x37 x17)) (* x23 x35) (* x24 x38) (* (- 1) (* x20 x38)) (* (- 1) (* x23 x39)) (* x32 x22)) 0)) (>= (+ (* (- 1) (* x37 x18)) (* (- 1) (* x21 x38)) (* x22 x33) (* x23 x36)) 0)))) (and (and (and (and (not (<= (+ (* x17 x5) (* x4 x16) (* x6 x18) (* x7 x28 x16) (* x8 x29 x16) (* x30 x9 x16) (* x10 x17 x28) (* x17 x11 x29) (* x30 x17 x12) (* x13 x28 x18) (* x14 x18 x29) (* x30 x18 x15) (* (- 1) (* x7 x31 x4)) (* (- 1) (* x7 x32 x5)) (* (- 1) (* x6 x7 x33)) (* (- 1) (* x34 x4 x8)) (* (- 1) (* x35 x8 x5)) (* (- 1) (* x6 x8 x36)) (* (- 1) (* x37 x4 x9)) (* (- 1) (* x38 x5 x9)) (* (- 1) (* x6 x39 x9))) 0)) (and (and (>= (+ (* x17 x5) (* x4 x16) (* x6 x18) (* x7 x28 x16) (* x8 x29 x16) (* x30 x9 x16) (* x10 x17 x28) (* x17 x11 x29) (* x30 x17 x12) (* x13 x28 x18) (* x14 x18 x29) (* x30 x18 x15) (* (- 1) (* x7 x31 x4)) (* (- 1) (* x7 x32 x5)) (* (- 1) (* x6 x7 x33)) (* (- 1) (* x34 x4 x8)) (* (- 1) (* x35 x8 x5)) (* (- 1) (* x6 x8 x36)) (* (- 1) (* x37 x4 x9)) (* (- 1) (* x38 x5 x9)) (* (- 1) (* x6 x39 x9))) 0) (>= (+ (* x20 x5) (* x4 x19) (* x6 x21) (* x7 x28 x19) (* x8 x29 x19) (* x30 x19 x9) (* x20 x10 x28) (* x20 x11 x29) (* x30 x20 x12) (* x13 x21 x28) (* x14 x21 x29) (* x30 x21 x15) (* (- 1) (* x10 x31 x4)) (* (- 1) (* x10 x32 x5)) (* (- 1) (* x6 x10 x33)) (* (- 1) (* x34 x4 x11)) (* (- 1) (* x11 x35 x5)) (* (- 1) (* x6 x11 x36)) (* (- 1) (* x37 x4 x12)) (* (- 1) (* x38 x5 x12)) (* (- 1) (* x6 x39 x12))) 0)) (>= (+ (* x23 x5) (* x4 x22) (* x6 x24) (* x7 x28 x22) (* x8 x22 x29) (* x30 x22 x9) (* x23 x10 x28) (* x23 x11 x29) (* x23 x30 x12) (* x13 x24 x28) (* x24 x14 x29) (* x30 x24 x15) (* (- 1) (* x13 x31 x4)) (* (- 1) (* x13 x32 x5)) (* (- 1) (* x6 x13 x33)) (* (- 1) (* x34 x14 x4)) (* (- 1) (* x14 x35 x5)) (* (- 1) (* x6 x14 x36)) (* (- 1) (* x37 x4 x15)) (* (- 1) (* x38 x15 x5)) (* (- 1) (* x6 x15 x39))) 0))) (and (and (and (and (and (and (and (and (>= (+ (* x7 x31) (* x34 x8) (* x37 x9) (* (- 1) (* x7 x7 x31)) (* (- 1) (* x10 x7 x32)) (* (- 1) (* x13 x7 x33)) (* (- 1) (* x34 x7 x8)) (* (- 1) (* x10 x35 x8)) (* (- 1) (* x13 x8 x36)) (* (- 1) (* x37 x7 x9)) (* (- 1) (* x10 x38 x9)) (* (- 1) (* x13 x39 x9))) 0) (>= (+ (* x7 x32) (* x35 x8) (* x38 x9) (* (- 1) (* x7 x31 x8)) (* (- 1) (* x7 x11 x32)) (* (- 1) (* x7 x14 x33)) (* (- 1) (* x11 x35 x8)) (* (- 1) (* x14 x8 x36)) (* (- 1) (* x34 x8 x8)) (* (- 1) (* x37 x8 x9)) (* (- 1) (* x38 x11 x9)) (* (- 1) (* x14 x39 x9))) 0)) (>= (+ (* x7 x33) (* x8 x36) (* x39 x9) (* (- 1) (* x7 x31 x9)) (* (- 1) (* x7 x32 x12)) (* (- 1) (* x7 x15 x33)) (* (- 1) (* x34 x8 x9)) (* (- 1) (* x35 x8 x12)) (* (- 1) (* x8 x15 x36)) (* (- 1) (* x15 x39 x9)) (* (- 1) (* x37 x9 x9)) (* (- 1) (* x38 x12 x9))) 0)) (>= (+ (* x10 x31) (* x34 x11) (* x37 x12) (* (- 1) (* x10 x7 x31)) (* (- 1) (* x10 x10 x32)) (* (- 1) (* x13 x10 x33)) (* (- 1) (* x34 x7 x11)) (* (- 1) (* x10 x11 x35)) (* (- 1) (* x13 x11 x36)) (* (- 1) (* x37 x7 x12)) (* (- 1) (* x10 x38 x12)) (* (- 1) (* x13 x39 x12))) 0)) (>= (+ (* x10 x32) (* x11 x35) (* x38 x12) (* (- 1) (* x10 x31 x8)) (* (- 1) (* x10 x11 x32)) (* (- 1) (* x10 x14 x33)) (* (- 1) (* x11 x11 x35)) (* (- 1) (* x14 x11 x36)) (* (- 1) (* x34 x11 x8)) (* (- 1) (* x37 x8 x12)) (* (- 1) (* x38 x11 x12)) (* (- 1) (* x14 x39 x12))) 0)) (>= (+ (* x10 x33) (* x11 x36) (* x39 x12) (* (- 1) (* x10 x31 x9)) (* (- 1) (* x10 x32 x12)) (* (- 1) (* x10 x15 x33)) (* (- 1) (* x34 x11 x9)) (* (- 1) (* x11 x35 x12)) (* (- 1) (* x11 x15 x36)) (* (- 1) (* x15 x39 x12)) (* (- 1) (* x37 x12 x9)) (* (- 1) (* x38 x12 x12))) 0)) (>= (+ (* x13 x31) (* x34 x14) (* x37 x15) (* (- 1) (* x13 x7 x31)) (* (- 1) (* x13 x10 x32)) (* (- 1) (* x13 x13 x33)) (* (- 1) (* x34 x7 x14)) (* (- 1) (* x10 x14 x35)) (* (- 1) (* x13 x14 x36)) (* (- 1) (* x37 x7 x15)) (* (- 1) (* x10 x38 x15)) (* (- 1) (* x13 x15 x39))) 0)) (>= (+ (* x13 x32) (* x14 x35) (* x38 x15) (* (- 1) (* x13 x31 x8)) (* (- 1) (* x13 x11 x32)) (* (- 1) (* x13 x14 x33)) (* (- 1) (* x14 x11 x35)) (* (- 1) (* x14 x14 x36)) (* (- 1) (* x34 x14 x8)) (* (- 1) (* x37 x8 x15)) (* (- 1) (* x38 x11 x15)) (* (- 1) (* x14 x15 x39))) 0)) (>= (+ (* x13 x33) (* x14 x36) (* x15 x39) (* (- 1) (* x13 x31 x9)) (* (- 1) (* x13 x32 x12)) (* (- 1) (* x13 x15 x33)) (* (- 1) (* x34 x14 x9)) (* (- 1) (* x14 x35 x12)) (* (- 1) (* x14 x15 x36)) (* (- 1) (* x15 x15 x39)) (* (- 1) (* x37 x15 x9)) (* (- 1) (* x38 x15 x12))) 0))) (and (and (and (and (and (and (and (and (>= (+ (* x10 x17 x31) (* x17 x34 x11) (* x37 x17 x12) (* x13 x31 x18) (* x34 x14 x18) (* x37 x18 x15) (* (- 1) (* x7 x32 x19)) (* (- 1) (* x7 x22 x33)) (* (- 1) (* x35 x8 x19)) (* (- 1) (* x8 x22 x36)) (* (- 1) (* x38 x19 x9)) (* (- 1) (* x22 x39 x9))) 0) (>= (+ (* x7 x32 x16) (* x35 x8 x16) (* x38 x9 x16) (* x10 x17 x32) (* x17 x11 x35) (* x17 x38 x12) (* x13 x18 x32) (* x14 x18 x35) (* x38 x18 x15) (* (- 1) (* x17 x7 x31)) (* (- 1) (* x20 x7 x32)) (* (- 1) (* x23 x7 x33)) (* (- 1) (* x17 x34 x8)) (* (- 1) (* x20 x35 x8)) (* (- 1) (* x23 x8 x36)) (* (- 1) (* x37 x17 x9)) (* (- 1) (* x20 x38 x9)) (* (- 1) (* x23 x39 x9))) 0)) (>= (+ (* x7 x16 x33) (* x8 x36 x16) (* x39 x9 x16) (* x10 x17 x33) (* x17 x11 x36) (* x17 x39 x12) (* x13 x18 x33) (* x14 x18 x36) (* x18 x15 x39) (* (- 1) (* x7 x31 x18)) (* (- 1) (* x7 x21 x32)) (* (- 1) (* x7 x24 x33)) (* (- 1) (* x34 x18 x8)) (* (- 1) (* x21 x35 x8)) (* (- 1) (* x24 x8 x36)) (* (- 1) (* x37 x18 x9)) (* (- 1) (* x21 x38 x9)) (* (- 1) (* x24 x39 x9))) 0)) (>= (+ (* x7 x31 x19) (* x34 x8 x19) (* x37 x19 x9) (* x20 x10 x31) (* x20 x34 x11) (* x20 x37 x12) (* x13 x31 x21) (* x34 x14 x21) (* x37 x21 x15) (* (- 1) (* x10 x31 x16)) (* (- 1) (* x10 x32 x19)) (* (- 1) (* x10 x22 x33)) (* (- 1) (* x34 x11 x16)) (* (- 1) (* x11 x35 x19)) (* (- 1) (* x11 x22 x36)) (* (- 1) (* x37 x12 x16)) (* (- 1) (* x38 x12 x19)) (* (- 1) (* x22 x39 x12))) 0)) (>= (+ (* (- 1) (* x10 x17 x31)) (* (- 1) (* x17 x34 x11)) (* (- 1) (* x37 x17 x12)) (* x7 x32 x19) (* x35 x8 x19) (* x38 x19 x9) (* x13 x21 x32) (* x14 x21 x35) (* x21 x38 x15) (* (- 1) (* x23 x10 x33)) (* (- 1) (* x23 x11 x36)) (* (- 1) (* x23 x39 x12))) 0)) (>= (+ (* x7 x19 x33) (* x8 x19 x36) (* x39 x19 x9) (* x20 x10 x33) (* x20 x11 x36) (* x20 x39 x12) (* x13 x21 x33) (* x14 x21 x36) (* x21 x15 x39) (* (- 1) (* x10 x31 x18)) (* (- 1) (* x10 x21 x32)) (* (- 1) (* x10 x24 x33)) (* (- 1) (* x34 x11 x18)) (* (- 1) (* x21 x11 x35)) (* (- 1) (* x24 x11 x36)) (* (- 1) (* x37 x18 x12)) (* (- 1) (* x21 x38 x12)) (* (- 1) (* x24 x39 x12))) 0)) (>= (+ (* x7 x31 x22) (* x34 x8 x22) (* x37 x22 x9) (* x23 x10 x31) (* x23 x34 x11) (* x23 x37 x12) (* x13 x24 x31) (* x34 x24 x14) (* x37 x24 x15) (* (- 1) (* x13 x31 x16)) (* (- 1) (* x13 x32 x19)) (* (- 1) (* x13 x22 x33)) (* (- 1) (* x34 x14 x16)) (* (- 1) (* x14 x35 x19)) (* (- 1) (* x14 x22 x36)) (* (- 1) (* x37 x15 x16)) (* (- 1) (* x38 x15 x19)) (* (- 1) (* x15 x22 x39))) 0)) (>= (+ (* x7 x32 x22) (* x35 x8 x22) (* x38 x22 x9) (* x23 x10 x32) (* x23 x11 x35) (* x23 x38 x12) (* x13 x24 x32) (* x24 x14 x35) (* x24 x38 x15) (* (- 1) (* x13 x17 x31)) (* (- 1) (* x13 x20 x32)) (* (- 1) (* x23 x13 x33)) (* (- 1) (* x17 x34 x14)) (* (- 1) (* x20 x14 x35)) (* (- 1) (* x23 x14 x36)) (* (- 1) (* x37 x17 x15)) (* (- 1) (* x20 x38 x15)) (* (- 1) (* x23 x15 x39))) 0)) (>= (+ (* (- 1) (* x13 x31 x18)) (* (- 1) (* x34 x14 x18)) (* (- 1) (* x37 x18 x15)) (* x7 x22 x33) (* x8 x22 x36) (* x22 x39 x9) (* (- 1) (* x13 x21 x32)) (* (- 1) (* x14 x21 x35)) (* (- 1) (* x21 x38 x15)) (* x23 x10 x33) (* x23 x11 x36) (* x23 x39 x12)) 0))) (and (and (and (and (and (and (and (and (>= (+ (* (- 1) x16) (* x16 x16) (* x17 x19) (* x18 x22)) 0) (>= (+ (* (- 1) x17) (* x17 x16) (* x20 x17) (* x23 x18)) 0)) (>= (+ (* (- 1) x18) (* x17 x21) (* x18 x16) (* x24 x18)) 0)) (>= (+ (* (- 1) x19) (* x19 x16) (* x20 x19) (* x21 x22)) 0)) (>= (+ (* (- 1) x20) (* x17 x19) (* x20 x20) (* x23 x21)) 0)) (>= (+ (* (- 1) x21) (* x20 x21) (* x18 x19) (* x24 x21)) 0)) (>= (+ (* (- 1) x22) (* x22 x16) (* x23 x19) (* x24 x22)) 0)) (>= (+ (* (- 1) x23) (* x23 x20) (* x17 x22) (* x23 x24)) 0)) (>= (+ (* (- 1) x24) (* x18 x22) (* x23 x21) (* x24 x24)) 0)))) (and (and (and (and (and (and (not (<= (+ (* x4 x1) (* x5 x2) (* x6 x3)) 0)) (>= (+ (* x4 x1) (* x5 x2) (* x6 x3)) 0)) (and (and (>= (+ (* (- 1) x1) (* x1 x16) (* x2 x19) (* x3 x22)) 0) (>= (+ (* (- 1) x2) (* x17 x1) (* x20 x2) (* x23 x3)) 0)) (>= (+ (* (- 1) x3) (* x1 x18) (* x3 x24) (* x21 x2)) 0))) (and (and (and (and (not (<= (+ (* x4 x1) (* x5 x2) (* x6 x3) (* (- 1) (* x4 x25)) (* (- 1) (* x5 x26)) (* (- 1) (* x6 x27))) 0)) (>= (+ (* x4 x1) (* x5 x2) (* x6 x3) (* (- 1) (* x4 x25)) (* (- 1) (* x5 x26)) (* (- 1) (* x6 x27))) 0)) (and (and (>= (+ (* (- 1) x1) (* x7 x1) (* x10 x2) (* x13 x3)) 0) (>= (+ (* (- 1) x2) (* x1 x8) (* x3 x14) (* x11 x2)) 0)) (>= (+ (* (- 1) x3) (* x1 x9) (* x3 x15) (* x12 x2)) 0))) (and (and (>= (+ (* x1 x16) (* x2 x19) (* x3 x22) (* (- 1) (* x7 x25)) (* (- 1) (* x10 x26)) (* (- 1) (* x13 x27))) 0) (>= (+ (* (- 1) (* x27 x14)) (* x17 x1) (* x20 x2) (* x23 x3) (* (- 1) (* x8 x25)) (* (- 1) (* x11 x26))) 0)) (>= (+ (* x1 x18) (* x3 x24) (* (- 1) (* x25 x9)) (* (- 1) (* x27 x15)) (* x21 x2) (* (- 1) (* x12 x26))) 0))) (and (and (>= (+ x25 (* (- 1) (* x25 x16)) (* (- 1) (* x27 x22)) (* (- 1) (* x19 x26))) 0) (>= (+ x26 (* (- 1) (* x17 x25)) (* (- 1) (* x20 x26)) (* (- 1) (* x23 x27))) 0)) (>= (+ x27 (* (- 1) (* x27 x24)) (* (- 1) (* x18 x25)) (* (- 1) (* x21 x26))) 0)))) (and (and (and (not (<= (+ (* x28 x1) (* x29 x2) (* x30 x3) (* x28 x25) (* x29 x26) (* x30 x27)) 0)) (>= (+ (* x28 x1) (* x29 x2) (* x30 x3) (* x28 x25) (* x29 x26) (* x30 x27)) 0)) (and (and (>= (+ (* (- 1) x1) (* x3 x37) (* x31 x1) (* x34 x2)) 0) (>= (+ (* (- 1) x2) (* x1 x32) (* x3 x38) (* x35 x2)) 0)) (>= (+ (* (- 1) x3) (* x1 x33) (* x2 x36) (* x3 x39)) 0))) (and (and (>= (+ (* (- 1) x25) (* x31 x25) (* x34 x26) (* x37 x27)) 0) (>= (+ (* (- 1) x26) (* x25 x32) (* x27 x38) (* x35 x26)) 0)) (>= (+ (* (- 1) x27) (* x25 x33) (* x27 x39) (* x36 x26)) 0)))) (and (and (and (not (<= (+ (* x4 x25) (* x5 x26) (* x6 x27) (* x28 x1) (* x29 x2) (* x30 x3) (* x7 x28 x25) (* x8 x25 x29) (* x30 x25 x9) (* x10 x28 x26) (* x11 x29 x26) (* x30 x12 x26) (* x13 x27 x28) (* x27 x14 x29) (* x30 x27 x15)) 0)) (>= (+ (* x4 x25) (* x5 x26) (* x6 x27) (* x28 x1) (* x29 x2) (* x30 x3) (* x7 x28 x25) (* x8 x25 x29) (* x30 x25 x9) (* x10 x28 x26) (* x11 x29 x26) (* x30 x12 x26) (* x13 x27 x28) (* x27 x14 x29) (* x30 x27 x15)) 0)) (and (and (>= (+ (* (- 1) x1) (* x3 x37) (* x31 x1) (* x34 x2)) 0) (>= (+ (* (- 1) x2) (* x1 x32) (* x3 x38) (* x35 x2)) 0)) (>= (+ (* (- 1) x3) (* x1 x33) (* x2 x36) (* x3 x39)) 0))) (and (and (>= (+ (* (- 1) x25) (* x7 x31 x25) (* x34 x8 x25) (* x37 x25 x9) (* x10 x31 x26) (* x34 x11 x26) (* x37 x12 x26) (* x13 x27 x31) (* x27 x34 x14) (* x37 x27 x15)) 0) (>= (+ (* (- 1) x26) (* x7 x25 x32) (* x35 x8 x25) (* x38 x25 x9) (* x10 x32 x26) (* x11 x35 x26) (* x38 x12 x26) (* x13 x27 x32) (* x27 x14 x35) (* x27 x38 x15)) 0)) (>= (+ (* (- 1) x27) (* x7 x25 x33) (* x8 x25 x36) (* x25 x39 x9) (* x10 x26 x33) (* x11 x36 x26) (* x39 x12 x26) (* x13 x27 x33) (* x27 x14 x36) (* x27 x15 x39)) 0)))) (and (and (and (and (not (<= (+ (* x4 x25) (* x5 x26) (* x6 x27) (* x7 x28 x25) (* x8 x25 x29) (* x30 x25 x9) (* x10 x28 x26) (* x11 x29 x26) (* x30 x12 x26) (* x13 x27 x28) (* x27 x14 x29) (* x30 x27 x15) (* (- 1) (* x31 x4 x1)) (* (- 1) (* x1 x32 x5)) (* (- 1) (* x6 x1 x33)) (* (- 1) (* x34 x4 x2)) (* (- 1) (* x35 x5 x2)) (* (- 1) (* x6 x2 x36)) (* (- 1) (* x3 x37 x4)) (* (- 1) (* x3 x38 x5)) (* (- 1) (* x6 x3 x39))) 0)) (>= (+ (* x4 x25) (* x5 x26) (* x6 x27) (* x7 x28 x25) (* x8 x25 x29) (* x30 x25 x9) (* x10 x28 x26) (* x11 x29 x26) (* x30 x12 x26) (* x13 x27 x28) (* x27 x14 x29) (* x30 x27 x15) (* (- 1) (* x31 x4 x1)) (* (- 1) (* x1 x32 x5)) (* (- 1) (* x6 x1 x33)) (* (- 1) (* x34 x4 x2)) (* (- 1) (* x35 x5 x2)) (* (- 1) (* x6 x2 x36)) (* (- 1) (* x3 x37 x4)) (* (- 1) (* x3 x38 x5)) (* (- 1) (* x6 x3 x39))) 0)) (and (and (>= (+ (* x3 x37) (* x31 x1) (* x34 x2) (* (- 1) (* x7 x31 x1)) (* (- 1) (* x10 x1 x32)) (* (- 1) (* x13 x1 x33)) (* (- 1) (* x34 x7 x2)) (* (- 1) (* x10 x35 x2)) (* (- 1) (* x13 x2 x36)) (* (- 1) (* x3 x37 x7)) (* (- 1) (* x3 x10 x38)) (* (- 1) (* x13 x3 x39))) 0) (>= (+ (* x1 x32) (* x3 x38) (* x35 x2) (* (- 1) (* x31 x1 x8)) (* (- 1) (* x11 x1 x32)) (* (- 1) (* x14 x1 x33)) (* (- 1) (* x11 x35 x2)) (* (- 1) (* x14 x2 x36)) (* (- 1) (* x34 x8 x2)) (* (- 1) (* x3 x37 x8)) (* (- 1) (* x3 x38 x11)) (* (- 1) (* x3 x14 x39))) 0)) (>= (+ (* x1 x33) (* x2 x36) (* x3 x39) (* (- 1) (* x31 x1 x9)) (* (- 1) (* x1 x32 x12)) (* (- 1) (* x1 x15 x33)) (* (- 1) (* x34 x2 x9)) (* (- 1) (* x35 x12 x2)) (* (- 1) (* x15 x2 x36)) (* (- 1) (* x3 x15 x39)) (* (- 1) (* x3 x37 x9)) (* (- 1) (* x3 x38 x12))) 0))) (and (and (>= (+ (* x7 x31 x25) (* x34 x8 x25) (* x37 x25 x9) (* x10 x31 x26) (* x34 x11 x26) (* x37 x12 x26) (* x13 x27 x31) (* x27 x34 x14) (* x37 x27 x15) (* (- 1) (* x31 x1 x16)) (* (- 1) (* x1 x32 x19)) (* (- 1) (* x1 x22 x33)) (* (- 1) (* x34 x2 x16)) (* (- 1) (* x35 x2 x19)) (* (- 1) (* x22 x2 x36)) (* (- 1) (* x3 x37 x16)) (* (- 1) (* x3 x38 x19)) (* (- 1) (* x3 x22 x39))) 0) (>= (+ (* x7 x25 x32) (* x35 x8 x25) (* x38 x25 x9) (* x10 x32 x26) (* x11 x35 x26) (* x38 x12 x26) (* x13 x27 x32) (* x27 x14 x35) (* x27 x38 x15) (* (- 1) (* x17 x31 x1)) (* (- 1) (* x20 x1 x32)) (* (- 1) (* x23 x1 x33)) (* (- 1) (* x17 x34 x2)) (* (- 1) (* x20 x35 x2)) (* (- 1) (* x23 x2 x36)) (* (- 1) (* x3 x37 x17)) (* (- 1) (* x3 x20 x38)) (* (- 1) (* x23 x3 x39))) 0)) (>= (+ (* x7 x25 x33) (* x8 x25 x36) (* x25 x39 x9) (* x10 x26 x33) (* x11 x36 x26) (* x39 x12 x26) (* x13 x27 x33) (* x27 x14 x36) (* x27 x15 x39) (* (- 1) (* x31 x1 x18)) (* (- 1) (* x21 x1 x32)) (* (- 1) (* x24 x1 x33)) (* (- 1) (* x34 x18 x2)) (* (- 1) (* x21 x35 x2)) (* (- 1) (* x24 x2 x36)) (* (- 1) (* x3 x37 x18)) (* (- 1) (* x3 x21 x38)) (* (- 1) (* x3 x24 x39))) 0))) (and (and (>= (+ (* (- 1) x25) (* x25 x16) (* x27 x22) (* x19 x26)) 0) (>= (+ (* (- 1) x26) (* x17 x25) (* x20 x26) (* x23 x27)) 0)) (>= (+ (* (- 1) x27) (* x27 x24) (* x18 x25) (* x21 x26)) 0))))))
(exit)
(check-sat)
